107
0 26 100 37 51 67 9 78 77 36 
105 23 74 99 39 58 24 97 15 73 
102 17 87 19 40 8 65 56 16 44 
68 104 5 60 84 14 106 88 89 63 
85 47 61 81 103 69 54 82 95 57 
86 98 6 52 21 66 59 70 93 64 
33 1 29 80 13 7 83 53 71 2 
27 34 96 92 75 3 94 41 90 38 
50 32 10 11 31 101 72 45 48 30 
12 43 79 76 18 25 22 35 28 49 
42 55 62 20 91 4 46 
